<number of tasks>
20

<cycle time>
1000

<order strength>
0,505


<task times>
1 502
2 221
3 123
4 173
5 275
6 115
7 28
8 573
9 318
10 166
11 70
12 142
13 154
14 488
15 80
16 29
17 417
18 439
19 330
20 337

<precedence relations>
1,5
2,4
2,6
3,6
4,7
5,8
6,8
7,11
8,9
8,10
8,12
8,13
8,16
9,14
10,15
11,16
13,17
14,19
15,18
16,20
17,19

<end>
